35
1 0 4
2 0 2
2 1 5
3 0 4
3 1 4
3 2 5
4 0 4
4 1 3
4 2 3
4 3 3
5 0 1
5 1 4
5 2 2
5 3 1
5 4 1
6 0 2
6 1 5
6 2 3
6 3 5
6 4 2
6 5 2
7 0 4
7 1 4
7 2 4
7 3 5
7 4 5
7 5 3
7 6 2
8 0 1
8 1 3
8 2 5
8 3 1
8 4 1
8 5 2
8 6 1
8 7 1
9 0 1
9 1 2
9 2 3
9 3 5
9 4 2
9 5 2
9 6 1
9 7 4
9 8 1
10 0 4
10 1 2
10 2 3
10 3 4
10 4 5
10 5 4
10 6 4
10 7 2
10 8 1
10 9 3
11 0 1
11 1 3
11 2 3
11 3 3
11 4 5
11 5 1
11 6 4
11 7 1
11 8 1
11 9 1
11 10 5
12 0 5
12 1 2
12 2 4
12 3 4
12 4 2
12 5 4
12 6 1
12 7 1
12 8 2
12 9 2
12 10 4
12 11 3
13 0 5
13 1 4
13 2 1
13 3 1
13 4 2
13 5 1
13 6 3
13 7 2
13 8 3
13 9 1
13 10 4
13 11 3
13 12 2
14 0 1
14 1 5
14 2 4
14 3 5
14 4 4
14 5 1
14 6 2
14 7 1
14 8 3
14 9 1
14 10 2
14 11 2
14 12 4
14 13 2
15 0 5
15 1 2
15 2 3
15 3 4
15 4 2
15 5 1
15 6 3
15 7 5
15 8 4
15 9 3
15 10 4
15 11 5
15 12 4
15 13 2
15 14 4
16 0 1
16 1 1
16 2 1
16 3 1
16 4 5
16 5 2
16 6 3
16 7 4
16 8 5
16 9 3
16 10 5
16 11 4
16 12 5
16 13 1
16 14 2
16 15 5
17 0 5
17 1 2
17 2 2
17 3 5
17 4 2
17 5 1
17 6 4
17 7 5
17 8 2
17 9 3
17 10 5
17 11 3
17 12 2
17 13 2
17 14 2
17 15 1
17 16 3
18 0 3
18 1 4
18 2 4
18 3 2
18 4 2
18 5 3
18 6 5
18 7 3
18 8 2
18 9 1
18 10 4
18 11 2
18 12 2
18 13 2
18 14 5
18 15 5
18 16 5
18 17 4
19 0 5
19 1 4
19 2 3
19 3 4
19 4 4
19 5 4
19 6 3
19 7 2
19 8 1
19 9 1
19 10 5
19 11 3
19 12 5
19 13 4
19 14 1
19 15 3
19 16 1
19 17 5
19 18 2
20 0 4
20 1 3
20 2 4
20 3 2
20 4 5
20 5 1
20 6 2
20 7 2
20 8 4
20 9 1
20 10 3
20 11 5
20 12 3
20 13 1
20 14 1
20 15 2
20 16 1
20 17 5
20 18 2
20 19 5
21 0 2
21 1 3
21 2 3
21 3 5
21 4 3
21 5 4
21 6 2
21 7 1
21 8 5
21 9 5
21 10 1
21 11 4
21 12 2
21 13 1
21 14 4
21 15 4
21 16 4
21 17 4
21 18 3
21 19 3
21 20 5
22 0 2
22 1 1
22 2 3
22 3 1
22 4 2
22 5 4
22 6 4
22 7 4
22 8 1
22 9 4
22 10 1
22 11 3
22 12 5
22 13 2
22 14 4
22 15 2
22 16 5
22 17 2
22 18 3
22 19 1
22 20 5
22 21 4
23 0 2
23 1 3
23 2 3
23 3 2
23 4 1
23 5 1
23 6 4
23 7 3
23 8 5
23 9 5
23 10 4
23 11 3
23 12 2
23 13 2
23 14 4
23 15 4
23 16 2
23 17 2
23 18 3
23 19 4
23 20 1
23 21 2
23 22 2
24 0 3
24 1 2
24 2 2
24 3 1
24 4 4
24 5 2
24 6 5
24 7 5
24 8 5
24 9 2
24 10 3
24 11 2
24 12 3
24 13 4
24 14 3
24 15 3
24 16 5
24 17 2
24 18 5
24 19 3
24 20 3
24 21 3
24 22 1
24 23 3
25 0 2
25 1 1
25 2 5
25 3 1
25 4 4
25 5 1
25 6 1
25 7 1
25 8 5
25 9 1
25 10 2
25 11 3
25 12 1
25 13 3
25 14 3
25 15 2
25 16 1
25 17 5
25 18 5
25 19 2
25 20 2
25 21 3
25 22 3
25 23 1
25 24 5
26 0 1
26 1 1
26 2 1
26 3 4
26 4 1
26 5 3
26 6 5
26 7 1
26 8 1
26 9 5
26 10 3
26 11 4
26 12 4
26 13 5
26 14 5
26 15 4
26 16 2
26 17 5
26 18 4
26 19 2
26 20 3
26 21 4
26 22 3
26 23 5
26 24 4
26 25 1
27 0 3
27 1 1
27 2 3
27 3 5
27 4 5
27 5 2
27 6 1
27 7 3
27 8 2
27 9 5
27 10 1
27 11 5
27 12 1
27 13 1
27 14 5
27 15 1
27 16 4
27 17 4
27 18 3
27 19 1
27 20 4
27 21 1
27 22 3
27 23 4
27 24 5
27 25 3
27 26 4
28 0 5
28 1 5
28 2 2
28 3 3
28 4 3
28 5 5
28 6 3
28 7 5
28 8 2
28 9 2
28 10 4
28 11 1
28 12 5
28 13 4
28 14 5
28 15 5
28 16 1
28 17 5
28 18 2
28 19 3
28 20 5
28 21 5
28 22 2
28 23 4
28 24 3
28 25 3
28 26 5
28 27 4
29 0 3
29 1 1
29 2 2
29 3 4
29 4 1
29 5 3
29 6 1
29 7 2
29 8 5
29 9 5
29 10 2
29 11 5
29 12 4
29 13 2
29 14 2
29 15 1
29 16 2
29 17 2
29 18 2
29 19 5
29 20 3
29 21 5
29 22 1
29 23 5
29 24 5
29 25 3
29 26 5
29 27 3
29 28 5
30 0 3
30 1 2
30 2 5
30 3 1
30 4 5
30 5 2
30 6 3
30 7 4
30 8 2
30 9 5
30 10 1
30 11 1
30 12 2
30 13 5
30 14 2
30 15 2
30 16 4
30 17 5
30 18 4
30 19 2
30 20 2
30 21 4
30 22 1
30 23 1
30 24 5
30 25 1
30 26 2
30 27 1
30 28 2
30 29 2
31 0 5
31 1 1
31 2 3
31 3 2
31 4 4
31 5 3
31 6 5
31 7 4
31 8 4
31 9 3
31 10 2
31 11 1
31 12 4
31 13 3
31 14 4
31 15 1
31 16 3
31 17 2
31 18 3
31 19 4
31 20 1
31 21 2
31 22 2
31 23 4
31 24 2
31 25 1
31 26 3
31 27 5
31 28 4
31 29 1
31 30 1
32 0 4
32 1 1
32 2 3
32 3 2
32 4 3
32 5 5
32 6 5
32 7 2
32 8 5
32 9 3
32 10 2
32 11 1
32 12 3
32 13 2
32 14 2
32 15 2
32 16 3
32 17 5
32 18 2
32 19 1
32 20 5
32 21 3
32 22 2
32 23 1
32 24 5
32 25 4
32 26 4
32 27 4
32 28 3
32 29 4
32 30 3
32 31 4
33 0 5
33 1 4
33 2 2
33 3 2
33 4 5
33 5 4
33 6 4
33 7 4
33 8 3
33 9 5
33 10 3
33 11 1
33 12 3
33 13 5
33 14 1
33 15 1
33 16 1
33 17 1
33 18 5
33 19 4
33 20 1
33 21 1
33 22 1
33 23 4
33 24 4
33 25 4
33 26 2
33 27 3
33 28 5
33 29 4
33 30 3
33 31 2
33 32 3
34 0 4
34 1 4
34 2 4
34 3 5
34 4 2
34 5 2
34 6 5
34 7 2
34 8 1
34 9 5
34 10 4
34 11 5
34 12 2
34 13 3
34 14 2
34 15 1
34 16 4
34 17 1
34 18 3
34 19 3
34 20 3
34 21 5
34 22 5
34 23 3
34 24 4
34 25 3
34 26 4
34 27 3
34 28 2
34 29 5
34 30 3
34 31 1
34 32 4
34 33 5
